Ta8 Ni12 Te20
   1.000
   17.4205984820975992    0.0000000000000000    0.0000000000000000
    0.0000000000000002    3.6166453740000000    0.0000000000000000
    0.0026757619106521    0.0000000000000015   25.0355624518911526
   Ta   Ni   Te
    4    6   10
Direct
    0.8716736161000000    0.2499999701000000    0.4961557216000000    Ta1
    0.3717203725000000    0.7499998808000000    0.5038568979000000    Ta2
    0.1290940565000000    0.2499999701000000    0.4961383189999999    Ta3
    0.6290551200000000    0.7499998808000000    0.5038633385000000    Ta4
    0.7285390752999999    0.2499999701000000    0.4711010682000001    Ni1
    0.2285657376000000    0.7499998808000000    0.5288835697000001    Ni2
    0.2722614781000000    0.2499999701000000    0.4710957243000000    Ni3
    0.7722092516000000    0.7499998808000000    0.5288992816000000    Ni4
    0.5003948592000000    0.2499999701000000    0.4955658407000000    Ni5
    0.0003801677000000    0.7499998808000000    0.5044734099000000    Ni6
    0.8022158121000000    0.7499998808000000    0.4220715118000000    Te1
    0.3022099323000000    0.2499999701000000    0.5779278364000000    Te2
    0.5994789935000000    0.2499999701000000    0.4226721221000000    Te3
    0.0994900170000000    0.7499998808000000    0.5773243441000000    Te4
    0.1985720698000000    0.7499998808000000    0.4220726838000000    Te5
    0.6985233763000001    0.2499999701000000    0.5779284882000000    Te6
    0.4013408119000000    0.2499999701000000    0.4226658961000000    Te7
    0.9012670964000000    0.7499998808000000    0.5773447947000000    Te8
    0.0003881782000000    0.2499999701000000    0.4336643944000000    Te9
    0.5003775574000000    0.7499998808000000    0.5663873553000001   Te10
