&input
   fildyn='ta2ni3te5.dyn', zasr='simple', flfrc='ta2ni3te5-151.fc'
 /
