kpoints along symmetry lines
30
Line-mode
rec 
   0.0000000000     0.0000000000     0.0000000000     G
   0.5000000000     0.0000000000     0.0000000000     X
   
   0.5000000000     0.0000000000     0.0000000000     X   
   0.5000000000     0.5000000000     0.0000000000     R

   0.5000000000     0.5000000000     0.0000000000     R   
   0.0000000000     0.5000000000     0.0000000000     Y
   
   0.0000000000     0.5000000000     0.0000000000     Y   
   0.0000000000     0.0000000000     0.0000000000     G
 
