

Begin Projections
random
Ta:  p,d
Ni:  p,d
Te:  s,p
End Projections

use_ws_distance=.false.



num_iter = 2000

kmesh_tol = 0.000001
#search_shells = 500

guiding_centres = true

!postproc_setup = T

!restart = plot

 write_hr = T

bands_plot = T ! do a band structure calculation at the end
	
begin kpoint_path ! along the following path
G  0.0000000000     0.0000000000     0.0000000000  X  0.5000000000     0.0000000000     0.0000000000
X  0.5000000000     0.0000000000     0.0000000000  R  0.5000000000     0.5000000000     0.0000000000
R  0.5000000000     0.5000000000     0.0000000000  Y  0.0000000000     0.5000000000     0.0000000000
Y  0.0000000000     0.5000000000     0.0000000000  G  0.0000000000     0.0000000000     0.0000000000
end kpoint_path

# This part was generated automatically by VASP
num_bands = 160
num_wann = 160
begin unit_cell_cart
    17.8036734     0.0000000     0.0000000
     0.0000000     3.7173664     0.0000000
     0.0000000     0.0000000    25.0355625
end unit_cell_cart
begin atoms_cart
Ta      15.5189849     0.9293415    12.4418209
Ta       6.6168540     2.7880243    12.5940768
Ta       2.2992546     0.9293415    12.4414419
Ta      11.2018906     2.7880243    12.5942947
Ni      12.9783295     0.9293415    11.7774516
Ni       4.0759841     2.7880243    13.2590286
Ni       4.8394610     0.9293415    11.7770879
Ni      13.7415672     2.7880243    13.2591933
Ni       8.9070398     0.9293415    12.3705055
Ni       0.0056273     2.7880243    12.6645760
Te      14.3119032     2.7880243    10.5808025
Te       5.4095630     0.9293415    14.4553864
Te      10.6931800     0.9293415    10.5625092
Te       1.7905194     2.7880243    14.4733675
Te       3.5069210     2.7880243    10.5804023
Te      12.4087674     0.9293415    14.4556856
Te       7.1234650     0.9293415    10.5610649
Te      16.0257228     2.7880243    14.4745523
Te       0.0071491     0.9293415    10.8980659
Te       8.9089902     2.7880243    14.1366291
end atoms_cart
mp_grid =     6    11     1
begin kpoints
      0.000000000000      0.000000000000      0.000000000000
      0.166666666667      0.000000000000      0.000000000000
      0.333333333333      0.000000000000      0.000000000000
      0.500000000000      0.000000000000      0.000000000000
      0.000000000000      0.090909090909     -0.000000000000
      0.166666666667      0.090909090909     -0.000000000000
      0.333333333333      0.090909090909     -0.000000000000
      0.500000000000      0.090909090909     -0.000000000000
      0.000000000000      0.181818181818      0.000000000000
      0.166666666667      0.181818181818      0.000000000000
      0.333333333333      0.181818181818      0.000000000000
      0.500000000000      0.181818181818      0.000000000000
      0.000000000000      0.272727272727      0.000000000000
      0.166666666667      0.272727272727      0.000000000000
      0.333333333333      0.272727272727      0.000000000000
      0.500000000000      0.272727272727      0.000000000000
      0.000000000000      0.363636363636     -0.000000000000
      0.166666666667      0.363636363636     -0.000000000000
      0.333333333333      0.363636363636     -0.000000000000
      0.500000000000      0.363636363636     -0.000000000000
      0.000000000000      0.454545454545     -0.000000000000
      0.166666666667      0.454545454545     -0.000000000000
      0.333333333333      0.454545454545     -0.000000000000
      0.500000000000      0.454545454545     -0.000000000000
      0.000000000000     -0.090909090909     -0.000000000000
      0.166666666667     -0.090909090909     -0.000000000000
      0.333333333333     -0.090909090909     -0.000000000000
      0.500000000000     -0.090909090909     -0.000000000000
      0.000000000000     -0.181818181818      0.000000000000
      0.166666666667     -0.181818181818      0.000000000000
      0.333333333333     -0.181818181818      0.000000000000
      0.500000000000     -0.181818181818      0.000000000000
      0.000000000000     -0.272727272727      0.000000000000
      0.166666666667     -0.272727272727      0.000000000000
      0.333333333333     -0.272727272727      0.000000000000
      0.500000000000     -0.272727272727      0.000000000000
      0.000000000000     -0.363636363636     -0.000000000000
      0.166666666667     -0.363636363636     -0.000000000000
      0.333333333333     -0.363636363636     -0.000000000000
      0.500000000000     -0.363636363636     -0.000000000000
      0.000000000000     -0.454545454545     -0.000000000000
      0.166666666667     -0.454545454545     -0.000000000000
      0.333333333333     -0.454545454545     -0.000000000000
      0.500000000000     -0.454545454545     -0.000000000000
     -0.166666666667      0.000000000000      0.000000000000
     -0.333333333333      0.000000000000      0.000000000000
     -0.166666666667     -0.090909090909      0.000000000000
     -0.166666666667      0.090909090909      0.000000000000
     -0.333333333333     -0.090909090909      0.000000000000
     -0.333333333333      0.090909090909      0.000000000000
     -0.166666666667     -0.181818181818     -0.000000000000
     -0.166666666667      0.181818181818     -0.000000000000
     -0.333333333333     -0.181818181818     -0.000000000000
     -0.333333333333      0.181818181818     -0.000000000000
     -0.166666666667     -0.272727272727     -0.000000000000
     -0.166666666667      0.272727272727     -0.000000000000
     -0.333333333333     -0.272727272727     -0.000000000000
     -0.333333333333      0.272727272727     -0.000000000000
     -0.166666666667     -0.363636363636      0.000000000000
     -0.166666666667      0.363636363636      0.000000000000
     -0.333333333333     -0.363636363636      0.000000000000
     -0.333333333333      0.363636363636      0.000000000000
     -0.166666666667     -0.454545454545      0.000000000000
     -0.166666666667      0.454545454545      0.000000000000
     -0.333333333333     -0.454545454545      0.000000000000
     -0.333333333333      0.454545454545      0.000000000000
end kpoints
