Ta8 Ni12 Te20                           
   1.00000000000000     
    17.8036734279809288    0.0000000000000000    0.0000000000000000
     0.0000000000000000    3.7173663731318145    0.0000000000000000
     0.0000000000000000    0.0000000000000015   25.0355624518911526
  Ta/b94d0231aa3  Ni/0534bc51ca8  Te/e13b0861f25
               4               6              10
Direct
  0.8716731955071992  0.2499999700999993  0.4969659029376388
  0.3716566731833311  0.7499998807999972  0.5030474878522568
  0.1291449544473124  0.2499999700999993  0.4969507656165959
  0.6291898489822074  0.7499998807999972  0.5030561898924191
  0.7289691983233269  0.2499999700999993  0.4704288782590922
  0.2289406219540169  0.7499998807999972  0.5296077787782068
  0.2718237333540685  0.2499999700999993  0.4704143530942488
  0.7718388683773156  0.7499998807999972  0.5296143553921269
  0.5002922494658080  0.2499999700999993  0.4941173387219990
  0.0003160752234876  0.7499998807999972  0.5058634490993441
  0.8038736085740865  0.7499998807999972  0.4226309082307296
  0.3038453292388752  0.2499999700999993  0.5773941136372471
  0.6006164998484564  0.2499999700999993  0.4219002160959633
  0.1005702245331008  0.7499998807999972  0.5781123359379379
  0.1969773831304806  0.7499998807999972  0.4226149214492878
  0.6969779292619194  0.2499999700999993  0.5774060636578184
  0.4001120913344280  0.2499999700999993  0.4218425272738884
  0.9001357434280237  0.7499998807999972  0.5781596611796971
  0.0004015530915353  0.2499999700999993  0.4353034185927100
  0.5004017982410076  0.7499998807999972  0.5646619326007780
 
  0.00000000E+00  0.00000000E+00  0.00000000E+00
  0.00000000E+00  0.00000000E+00  0.00000000E+00
  0.00000000E+00  0.00000000E+00  0.00000000E+00
  0.00000000E+00  0.00000000E+00  0.00000000E+00
  0.00000000E+00  0.00000000E+00  0.00000000E+00
  0.00000000E+00  0.00000000E+00  0.00000000E+00
  0.00000000E+00  0.00000000E+00  0.00000000E+00
  0.00000000E+00  0.00000000E+00  0.00000000E+00
  0.00000000E+00  0.00000000E+00  0.00000000E+00
  0.00000000E+00  0.00000000E+00  0.00000000E+00
  0.00000000E+00  0.00000000E+00  0.00000000E+00
  0.00000000E+00  0.00000000E+00  0.00000000E+00
  0.00000000E+00  0.00000000E+00  0.00000000E+00
  0.00000000E+00  0.00000000E+00  0.00000000E+00
  0.00000000E+00  0.00000000E+00  0.00000000E+00
  0.00000000E+00  0.00000000E+00  0.00000000E+00
  0.00000000E+00  0.00000000E+00  0.00000000E+00
  0.00000000E+00  0.00000000E+00  0.00000000E+00
  0.00000000E+00  0.00000000E+00  0.00000000E+00
  0.00000000E+00  0.00000000E+00  0.00000000E+00
