Regular 4 x 4 x 4 mesh centered at Gamma 
0
Gamma
2 11 1
